language ESSENCE' 1.0

letting jobs = 102
letting horizon = 785
letting resourcesRenew = 2
letting resourcesNonrenew = 2
letting resourceLimits = [59, 51, 277, 298]
letting successors = [[2, 3, 4, 5, 6, 7, 8, 9, 10, 11, 12, 13, 16, 17, 19, 20, 25, 26, 28, 32, 35, 36, 38, 39, 51], [74, 59, 56, 52, 48, 46, 45, 30, 27, 24, 23, 22, 18, 15, 14], [101, 100, 99, 95, 70, 64, 62, 59, 58, 56, 53, 47, 46, 45, 44, 42, 41, 37, 34, 30, 27], [74, 73, 70, 59, 56, 55, 52, 48, 47, 46, 44, 30, 21, 15], [96, 94, 74, 73, 72, 69, 66, 63, 60, 59, 55, 52, 50, 48, 45, 43, 42, 41, 29], [101, 100, 98, 93, 72, 71, 70, 68, 59, 58, 52, 48, 46, 42, 41, 33, 21], [97, 96, 95, 71, 70, 69, 68, 66, 62, 59, 58, 57, 55, 52, 48, 45, 44, 42, 41, 37, 33], [101, 100, 97, 95, 94, 89, 88, 74, 72, 71, 70, 68, 67, 66, 64, 63, 62, 61, 60, 59, 58, 52, 48, 45, 42], [96, 74, 69, 64, 60, 57, 52, 49, 46, 44, 42, 41, 37, 33, 31], [97, 94, 93, 88, 73, 72, 71, 69, 67, 66, 61, 52, 48, 45, 43, 42, 29], [100, 72, 71, 68, 67, 61, 59, 58, 53, 48, 44, 40, 30, 21], [99, 98, 97, 96, 95, 93, 92, 70, 66, 58, 57, 54, 53, 52, 43, 33], [101, 99, 98, 95, 94, 87, 69, 68, 67, 64, 62, 55, 49, 48, 43, 30], [97, 96, 95, 94, 92, 90, 88, 73, 72, 68, 63, 62, 61, 60, 58, 57, 53, 43], [98, 97, 96, 95, 90, 89, 85, 83, 82, 81, 71, 69, 68, 66, 65, 58, 41, 37], [100, 96, 95, 94, 93, 71, 70, 67, 61, 57, 56, 46, 43, 30], [100, 98, 97, 94, 91, 88, 86, 85, 84, 74, 68, 67, 66, 63, 61, 59, 57, 52, 42], [96, 95, 94, 93, 91, 90, 70, 69, 68, 57, 55, 42, 41], [99, 97, 95, 93, 92, 90, 89, 88, 87, 84, 82, 79, 74, 67, 62, 61, 55, 43], [100, 90, 86, 78, 67, 66, 61, 59, 57, 44, 42], [97, 96, 95, 94, 92, 91, 90, 88, 83, 79, 69, 66, 62, 57, 43], [98, 97, 96, 93, 88, 87, 84, 82, 80, 79, 72, 67, 65, 61, 43], [93, 92, 91, 90, 83, 82, 71, 70, 43, 41], [100, 99, 97, 93, 90, 88, 87, 86, 85, 84, 79, 71, 70, 68, 66, 65, 61], [98, 94, 93, 92, 91, 89, 88, 87, 79, 78, 75, 70, 67, 65, 55], [100, 98, 95, 94, 93, 92, 91, 90, 87, 84, 82, 81, 79, 78, 76, 73, 68, 61], [96, 94, 92, 90, 88, 87, 86, 83, 82, 81, 79, 78, 69, 67, 66, 65, 61], [97, 96, 95, 92, 89, 88, 87, 82, 71, 66, 59, 58, 56], [101, 100, 98, 95, 91, 90, 86, 85, 84, 80, 79, 78, 77, 70, 68, 65, 62], [97, 92, 91, 88, 86, 85, 84, 83, 82, 80, 79, 78, 77, 66, 65], [95, 93, 92, 90, 88, 87, 85, 82, 81, 80, 72, 68, 58], [96, 93, 91, 90, 87, 82, 78, 77, 70, 66, 55], [94, 91, 90, 89, 88, 87, 82, 80, 79, 78, 65, 61], [96, 94, 87, 83, 79, 78, 73, 68, 66, 57], [96, 91, 89, 87, 85, 83, 82, 81, 80, 78, 77, 76, 66], [94, 90, 89, 87, 82, 81, 80, 79, 78, 68], [92, 88, 86, 84, 80, 78, 77, 76, 63], [100, 91, 90, 85, 79, 78, 77, 66, 62], [101, 96, 91, 86, 84, 83, 79, 77, 76, 75], [94, 89, 88, 85, 83, 78, 76, 66], [88, 87, 86, 79, 78, 67, 61], [92, 87, 82, 81, 80, 79, 77, 75], [86, 85, 81, 78, 76, 75], [94, 91, 87, 84, 83, 80], [98, 91, 90, 80, 78, 77], [91, 83, 80, 79, 78, 75], [88, 85, 77, 75, 69], [86, 85, 78, 76, 75], [93, 90, 89, 84, 76], [99, 82, 80, 78, 76], [93, 84, 81, 77, 75], [83, 82, 79, 65], [83, 81, 79, 69], [82, 80, 79, 67], [86, 85, 83, 80], [84, 79, 76, 75], [89, 82, 65], [78, 77, 75], [81, 76, 75], [80, 79, 75], [77, 75], [76, 75], [93, 75], [81, 75], [76], [75], [77], [75], [84], [81], [80], [83], [89], [77], [102], [102], [102], [102], [102], [102], [102], [102], [102], [102], [102], [102], [102], [102], [102], [102], [102], [102], [102], [102], [102], [102], [102], [102], [102], [102], [102], []]
letting durations = [[0], [1, 5, 10], [1, 3, 10], [3, 4, 6], [1, 3, 6], [1, 1, 8], [4, 5, 8], [7, 8, 9], [5, 7, 8], [1, 2, 4], [6, 7, 8], [4, 5, 10], [5, 6, 10], [3, 4, 9], [3, 4, 5], [6, 7, 7], [2, 6, 8], [1, 5, 6], [4, 5, 10], [1, 4, 10], [1, 1, 8], [2, 7, 7], [2, 3, 7], [6, 6, 10], [1, 5, 6], [4, 7, 8], [1, 8, 9], [1, 2, 3], [2, 8, 9], [5, 9, 10], [1, 3, 5], [2, 7, 10], [3, 6, 6], [3, 7, 8], [1, 3, 4], [2, 4, 5], [4, 5, 10], [5, 9, 10], [3, 4, 5], [2, 3, 5], [4, 6, 8], [7, 10, 10], [4, 8, 9], [5, 6, 9], [9, 9, 10], [4, 6, 8], [3, 5, 10], [3, 4, 5], [3, 3, 5], [8, 10, 10], [7, 7, 10], [5, 8, 9], [2, 3, 7], [1, 5, 5], [4, 5, 6], [5, 6, 8], [6, 7, 8], [1, 2, 4], [1, 3, 9], [1, 4, 8], [2, 3, 4], [3, 9, 10], [7, 7, 10], [2, 7, 7], [2, 4, 10], [1, 4, 10], [3, 8, 10], [1, 1, 3], [3, 3, 9], [4, 4, 5], [7, 9, 10], [2, 8, 8], [1, 6, 10], [4, 7, 7], [3, 4, 5], [2, 8, 9], [2, 5, 9], [1, 4, 10], [1, 1, 8], [2, 2, 7], [2, 8, 9], [2, 3, 4], [1, 5, 8], [3, 4, 6], [2, 3, 8], [2, 9, 10], [5, 7, 10], [1, 7, 8], [4, 7, 9], [3, 6, 8], [7, 8, 10], [1, 5, 7], [4, 7, 10], [1, 2, 7], [2, 4, 5], [2, 3, 5], [7, 9, 9], [3, 6, 10], [3, 9, 10], [2, 7, 8], [2, 7, 8], [0]]
letting resourceUsage = [[[0, 0, 0, 0]], [[3, 10, 0, 4], [3, 8, 5, 0], [3, 4, 2, 0]], [[6, 9, 8, 0], [4, 6, 8, 0], [2, 5, 8, 0]], [[8, 7, 2, 0], [8, 6, 2, 0], [7, 6, 2, 0]], [[7, 1, 0, 2], [7, 1, 4, 0], [7, 1, 0, 1]], [[6, 8, 0, 9], [6, 8, 8, 0], [6, 8, 6, 0]], [[8, 10, 0, 8], [7, 7, 6, 0], [7, 5, 6, 0]], [[3, 6, 10, 0], [2, 6, 0, 3], [1, 2, 0, 2]], [[10, 3, 8, 0], [6, 3, 0, 4], [1, 3, 0, 4]], [[5, 6, 0, 8], [3, 5, 4, 0], [3, 5, 0, 5]], [[3, 8, 2, 0], [3, 7, 1, 0], [2, 6, 0, 7]], [[4, 8, 7, 0], [4, 7, 6, 0], [3, 5, 0, 8]], [[10, 7, 9, 0], [10, 5, 9, 0], [10, 5, 0, 4]], [[5, 6, 8, 0], [4, 5, 7, 0], [2, 5, 6, 0]], [[4, 7, 7, 0], [3, 6, 0, 5], [3, 3, 0, 5]], [[7, 7, 0, 4], [6, 6, 0, 3], [5, 6, 7, 0]], [[8, 2, 0, 4], [7, 2, 8, 0], [5, 1, 8, 0]], [[2, 3, 0, 10], [2, 2, 0, 7], [2, 2, 2, 0]], [[7, 6, 0, 4], [4, 5, 6, 0], [2, 4, 4, 0]], [[7, 3, 0, 4], [5, 3, 6, 0], [3, 3, 0, 3]], [[5, 6, 7, 0], [3, 4, 0, 3], [2, 2, 0, 2]], [[2, 9, 8, 0], [1, 8, 0, 7], [1, 7, 3, 0]], [[3, 4, 4, 0], [3, 3, 0, 9], [3, 1, 0, 9]], [[5, 5, 0, 7], [5, 5, 1, 0], [5, 4, 0, 5]], [[7, 1, 3, 0], [6, 1, 0, 3], [6, 1, 0, 2]], [[6, 3, 0, 9], [5, 3, 2, 0], [4, 3, 2, 0]], [[6, 4, 4, 0], [6, 3, 0, 2], [6, 3, 0, 1]], [[10, 4, 0, 8], [7, 4, 6, 0], [7, 4, 0, 7]], [[10, 7, 0, 5], [9, 5, 0, 5], [9, 3, 0, 3]], [[7, 4, 0, 7], [7, 3, 0, 7], [4, 3, 7, 0]], [[7, 8, 1, 0], [6, 5, 1, 0], [4, 2, 1, 0]], [[5, 10, 0, 8], [4, 10, 0, 8], [3, 10, 0, 7]], [[9, 1, 5, 0], [7, 1, 0, 4], [5, 1, 4, 0]], [[6, 6, 10, 0], [6, 5, 9, 0], [6, 3, 7, 0]], [[10, 4, 0, 6], [4, 4, 0, 6], [3, 3, 0, 6]], [[9, 7, 9, 0], [6, 6, 7, 0], [5, 6, 3, 0]], [[3, 3, 0, 9], [2, 3, 0, 7], [2, 2, 3, 0]], [[6, 8, 0, 6], [6, 7, 6, 0], [2, 6, 0, 2]], [[7, 8, 0, 8], [6, 5, 0, 6], [6, 4, 0, 5]], [[7, 3, 0, 3], [6, 2, 0, 2], [5, 2, 0, 2]], [[3, 5, 0, 5], [2, 5, 0, 5], [2, 5, 3, 0]], [[6, 5, 0, 9], [5, 5, 0, 8], [5, 5, 3, 0]], [[6, 6, 0, 8], [6, 4, 6, 0], [6, 1, 5, 0]], [[5, 5, 0, 3], [4, 4, 0, 2], [1, 4, 0, 2]], [[8, 8, 7, 0], [8, 8, 0, 5], [6, 7, 0, 4]], [[4, 2, 0, 7], [2, 2, 2, 0], [1, 2, 1, 0]], [[6, 9, 2, 0], [6, 8, 2, 0], [6, 7, 0, 3]], [[10, 4, 0, 7], [6, 3, 0, 5], [6, 2, 0, 3]], [[5, 7, 6, 0], [4, 4, 0, 6], [1, 3, 3, 0]], [[10, 5, 0, 5], [10, 4, 1, 0], [10, 3, 0, 3]], [[8, 8, 8, 0], [7, 8, 0, 6], [6, 8, 5, 0]], [[9, 10, 0, 9], [6, 10, 10, 0], [4, 10, 0, 8]], [[10, 8, 9, 0], [9, 7, 6, 0], [7, 6, 4, 0]], [[7, 3, 0, 7], [6, 3, 0, 6], [1, 1, 8, 0]], [[4, 7, 0, 6], [3, 4, 7, 0], [3, 3, 5, 0]], [[5, 2, 0, 5], [5, 1, 5, 0], [5, 1, 0, 4]], [[3, 2, 0, 4], [2, 2, 0, 4], [2, 2, 0, 3]], [[9, 5, 6, 0], [5, 2, 0, 6], [4, 2, 0, 5]], [[8, 8, 0, 3], [3, 5, 6, 0], [3, 3, 0, 1]], [[3, 8, 0, 10], [3, 8, 6, 0], [3, 7, 5, 0]], [[8, 2, 0, 4], [7, 2, 0, 3], [7, 1, 0, 3]], [[9, 9, 6, 0], [7, 8, 0, 5], [1, 6, 5, 0]], [[5, 6, 7, 0], [5, 3, 0, 5], [5, 2, 0, 4]], [[5, 8, 0, 7], [5, 6, 0, 5], [4, 6, 8, 0]], [[9, 7, 5, 0], [9, 5, 0, 2], [9, 4, 3, 0]], [[6, 3, 4, 0], [5, 2, 0, 7], [4, 2, 3, 0]], [[2, 6, 0, 9], [2, 5, 3, 0], [2, 2, 3, 0]], [[10, 3, 0, 8], [7, 3, 8, 0], [6, 1, 7, 0]], [[4, 9, 7, 0], [3, 9, 0, 4], [2, 9, 7, 0]], [[6, 9, 7, 0], [5, 8, 0, 9], [1, 8, 6, 0]], [[3, 9, 0, 10], [3, 6, 0, 7], [1, 1, 0, 6]], [[7, 5, 0, 8], [7, 5, 1, 0], [4, 5, 0, 6]], [[9, 5, 0, 7], [6, 5, 7, 0], [4, 1, 5, 0]], [[3, 4, 7, 0], [1, 2, 6, 0], [1, 2, 0, 7]], [[8, 6, 8, 0], [6, 5, 7, 0], [5, 5, 0, 7]], [[9, 6, 10, 0], [6, 5, 0, 9], [5, 4, 0, 8]], [[10, 4, 6, 0], [8, 3, 5, 0], [6, 3, 0, 8]], [[6, 9, 7, 0], [6, 8, 6, 0], [6, 8, 0, 8]], [[4, 10, 9, 0], [3, 8, 0, 1], [1, 8, 0, 1]], [[7, 3, 0, 7], [6, 3, 6, 0], [5, 2, 5, 0]], [[2, 10, 2, 0], [2, 9, 2, 0], [2, 8, 2, 0]], [[3, 10, 0, 4], [1, 10, 0, 3], [1, 10, 0, 2]], [[8, 4, 9, 0], [6, 3, 0, 5], [2, 2, 4, 0]], [[8, 3, 5, 0], [6, 3, 3, 0], [4, 3, 0, 5]], [[8, 4, 7, 0], [7, 3, 7, 0], [6, 2, 0, 4]], [[8, 3, 9, 0], [4, 3, 8, 0], [3, 2, 0, 5]], [[4, 4, 0, 5], [2, 3, 8, 0], [2, 1, 8, 0]], [[9, 9, 0, 10], [7, 8, 6, 0], [7, 6, 4, 0]], [[6, 5, 0, 6], [4, 4, 5, 0], [4, 3, 0, 3]], [[5, 10, 7, 0], [3, 7, 0, 6], [2, 6, 5, 0]], [[3, 1, 0, 2], [3, 1, 0, 1], [3, 1, 3, 0]], [[1, 8, 6, 0], [1, 6, 3, 0], [1, 6, 0, 10]], [[6, 8, 7, 0], [3, 8, 0, 5], [1, 5, 6, 0]], [[9, 6, 9, 0], [6, 5, 8, 0], [5, 5, 0, 6]], [[7, 10, 6, 0], [6, 9, 6, 0], [6, 9, 0, 5]], [[6, 2, 5, 0], [5, 2, 0, 7], [1, 1, 2, 0]], [[4, 9, 7, 0], [3, 7, 7, 0], [3, 6, 0, 4]], [[7, 5, 0, 6], [4, 5, 0, 5], [1, 4, 5, 0]], [[2, 7, 0, 8], [1, 7, 0, 5], [1, 6, 0, 2]], [[7, 6, 6, 0], [6, 6, 5, 0], [2, 6, 5, 0]], [[10, 3, 0, 10], [9, 3, 0, 6], [7, 3, 0, 3]], [[0, 0, 0, 0]]]
